(set-logic QF_FPABV)
(declare-fun b32 () (_ FP 8 24))
(declare-fun b35 () (_ FP 8 24))
(declare-fun b62 () (_ FP 8 24))
(declare-fun b20 () (_ FP 8 24))
(declare-fun b10 () (_ FP 8 24))
(declare-fun b14 () (_ FP 8 24))
(declare-fun b68 () (_ FP 8 24))
(declare-fun b71 () (_ FP 8 24))
(declare-fun b44 () (_ FP 8 24))
(declare-fun b29 () (_ FP 8 24))
(declare-fun b59 () (_ FP 8 24))
(declare-fun b23 () (_ FP 8 24))
(declare-fun b41 () (_ FP 8 24))
(declare-fun b65 () (_ FP 8 24))
(declare-fun b119 () (_ FP 8 24))
(declare-fun b17 () (_ FP 8 24))
(declare-fun b11 () (_ FP 8 24))
(declare-fun b26 () (_ FP 8 24))
(declare-fun b50 () (_ FP 8 24))
(declare-fun b122 () (_ FP 8 24))
(declare-fun b56 () (_ FP 8 24))
(declare-fun b53 () (_ FP 8 24))
(declare-fun b47 () (_ FP 8 24))
(declare-fun b38 () (_ FP 8 24))
(define-fun .3 () RoundingMode roundNearestTiesToEven)
(define-fun .9 () (_ FP 8 24) b119)
(define-fun .10 () (_ FP 8 24) b11)
(define-fun .11 () Bool (< .9 .10))
(define-fun .12 () (_ FP 8 24) b10)
(define-fun .13 () (_ FP 8 24) (* .3 .10 .12))
(define-fun .14 () (_ FP 8 24) b14)
(define-fun .15 () (_ FP 8 24) (* .3 .13 .14))
(define-fun .16 () (_ FP 8 24) b17)
(define-fun .17 () (_ FP 8 24) (* .3 .15 .16))
(define-fun .18 () (_ FP 8 24) b20)
(define-fun .19 () (_ FP 8 24) (* .3 .17 .18))
(define-fun .20 () (_ FP 8 24) b23)
(define-fun .21 () (_ FP 8 24) (* .3 .19 .20))
(define-fun .22 () (_ FP 8 24) b26)
(define-fun .23 () (_ FP 8 24) (* .3 .21 .22))
(define-fun .24 () (_ FP 8 24) b29)
(define-fun .25 () (_ FP 8 24) (* .3 .23 .24))
(define-fun .26 () (_ FP 8 24) b32)
(define-fun .27 () (_ FP 8 24) (* .3 .25 .26))
(define-fun .28 () (_ FP 8 24) b35)
(define-fun .29 () (_ FP 8 24) (* .3 .27 .28))
(define-fun .30 () (_ FP 8 24) b38)
(define-fun .31 () (_ FP 8 24) (* .3 .29 .30))
(define-fun .32 () (_ FP 8 24) b41)
(define-fun .33 () (_ FP 8 24) (* .3 .31 .32))
(define-fun .34 () (_ FP 8 24) b44)
(define-fun .35 () (_ FP 8 24) (* .3 .33 .34))
(define-fun .36 () (_ FP 8 24) b47)
(define-fun .37 () (_ FP 8 24) (* .3 .35 .36))
(define-fun .38 () (_ FP 8 24) b50)
(define-fun .39 () (_ FP 8 24) (* .3 .37 .38))
(define-fun .40 () (_ FP 8 24) b53)
(define-fun .41 () (_ FP 8 24) (* .3 .39 .40))
(define-fun .42 () (_ FP 8 24) b56)
(define-fun .43 () (_ FP 8 24) (* .3 .41 .42))
(define-fun .44 () (_ FP 8 24) b59)
(define-fun .45 () (_ FP 8 24) (* .3 .43 .44))
(define-fun .46 () (_ FP 8 24) b62)
(define-fun .47 () (_ FP 8 24) (* .3 .45 .46))
(define-fun .48 () (_ FP 8 24) b65)
(define-fun .49 () (_ FP 8 24) (* .3 .47 .48))
(define-fun .50 () (_ FP 8 24) b68)
(define-fun .51 () (_ FP 8 24) (* .3 .49 .50))
(define-fun .52 () (_ FP 8 24) b71)
(define-fun .53 () Bool (< .51 .52))
(define-fun .54 () Bool (and .11 .53))
(define-fun .55 () (_ FP 8 24) b122)
(define-fun .56 () Bool (< .10 .55))
(define-fun .57 () Bool (and .54 .56))
(define-fun .58 () Bool (< .9 .14))
(define-fun .59 () Bool (and .57 .58))
(define-fun .60 () Bool (< .14 .55))
(define-fun .61 () Bool (and .59 .60))
(define-fun .62 () Bool (< .9 .16))
(define-fun .63 () Bool (and .61 .62))
(define-fun .64 () Bool (< .16 .55))
(define-fun .65 () Bool (and .63 .64))
(define-fun .66 () Bool (< .9 .18))
(define-fun .67 () Bool (and .65 .66))
(define-fun .68 () Bool (< .18 .55))
(define-fun .69 () Bool (and .67 .68))
(define-fun .70 () Bool (< .9 .20))
(define-fun .71 () Bool (and .69 .70))
(define-fun .72 () Bool (< .20 .55))
(define-fun .73 () Bool (and .71 .72))
(define-fun .74 () Bool (< .9 .22))
(define-fun .75 () Bool (and .73 .74))
(define-fun .76 () Bool (< .22 .55))
(define-fun .77 () Bool (and .75 .76))
(define-fun .78 () Bool (< .9 .24))
(define-fun .79 () Bool (and .77 .78))
(define-fun .80 () Bool (< .24 .55))
(define-fun .81 () Bool (and .79 .80))
(define-fun .82 () Bool (< .9 .26))
(define-fun .83 () Bool (and .81 .82))
(define-fun .84 () Bool (< .26 .55))
(define-fun .85 () Bool (and .83 .84))
(define-fun .86 () Bool (< .9 .28))
(define-fun .87 () Bool (and .85 .86))
(define-fun .88 () Bool (< .28 .55))
(define-fun .89 () Bool (and .87 .88))
(define-fun .90 () Bool (< .9 .30))
(define-fun .91 () Bool (and .89 .90))
(define-fun .92 () Bool (< .30 .55))
(define-fun .93 () Bool (and .91 .92))
(define-fun .94 () Bool (< .9 .32))
(define-fun .95 () Bool (and .93 .94))
(define-fun .96 () Bool (< .32 .55))
(define-fun .97 () Bool (and .95 .96))
(define-fun .98 () Bool (< .9 .34))
(define-fun .99 () Bool (and .97 .98))
(define-fun .100 () Bool (< .34 .55))
(define-fun .101 () Bool (and .99 .100))
(define-fun .102 () Bool (< .9 .36))
(define-fun .103 () Bool (and .101 .102))
(define-fun .104 () Bool (< .36 .55))
(define-fun .105 () Bool (and .103 .104))
(define-fun .106 () Bool (< .9 .38))
(define-fun .107 () Bool (and .105 .106))
(define-fun .108 () Bool (< .38 .55))
(define-fun .109 () Bool (and .107 .108))
(define-fun .110 () Bool (< .9 .40))
(define-fun .111 () Bool (and .109 .110))
(define-fun .112 () Bool (< .40 .55))
(define-fun .113 () Bool (and .111 .112))
(define-fun .114 () Bool (< .9 .42))
(define-fun .115 () Bool (and .113 .114))
(define-fun .116 () Bool (< .42 .55))
(define-fun .117 () Bool (and .115 .116))
(define-fun .118 () Bool (< .9 .44))
(define-fun .119 () Bool (and .117 .118))
(define-fun .120 () Bool (< .44 .55))
(define-fun .121 () Bool (and .119 .120))
(define-fun .122 () Bool (< .9 .46))
(define-fun .123 () Bool (and .121 .122))
(define-fun .124 () Bool (< .46 .55))
(define-fun .125 () Bool (and .123 .124))
(define-fun .126 () Bool (< .9 .48))
(define-fun .127 () Bool (and .125 .126))
(define-fun .128 () Bool (< .48 .55))
(define-fun .129 () Bool (and .127 .128))
(define-fun .130 () Bool (< .9 .50))
(define-fun .131 () Bool (and .129 .130))
(define-fun .132 () Bool (< .50 .55))
(define-fun .133 () Bool (and .131 .132))
(assert .133)
(check-sat)
